Version identifier: 22.1.0.0 | 2022-03-09 | 1a383f8ce
CPXPARAM_Threads                                 1
CPXPARAM_MIP_Strategy_VariableSelect             3
CPXPARAM_TimeLimit                               600
Tried aggregator 1 time.
Reduced MIP has 4520 rows, 18000 columns, and 95862 nonzeros.
Reduced MIP has 14000 binaries, 4000 generals, 0 SOSs, and 0 indicators.
Presolve time = 0.05 sec. (39.25 ticks)
Found incumbent of value 3127.000000 after 0.15 sec. (102.82 ticks)
Probing time = 0.01 sec. (5.98 ticks)
Tried aggregator 1 time.
Detecting symmetries...
Reduced MIP has 4520 rows, 18000 columns, and 95862 nonzeros.
Reduced MIP has 14000 binaries, 4000 generals, 0 SOSs, and 0 indicators.
Presolve time = 0.07 sec. (49.58 ticks)
Probing time = 0.01 sec. (5.99 ticks)
Clique table members: 509.
MIP emphasis: balance optimality and feasibility.
MIP search method: dynamic search.
Parallel mode: none, using 1 thread.
Root relaxation solution time = 4.91 sec. (4405.32 ticks)

        Nodes                                         Cuts/
   Node  Left     Objective  IInf  Best Integer    Best Bound    ItCnt     Gap

*     0+    0                         3127.0000        0.0000           100.00%
      0     0        0.0000  3698     3127.0000        0.0000    11604  100.00%
      0     0        0.0000  1450     3127.0000  ZeroHalf: 10    15468  100.00%
*     0+    0                          687.0000        0.0000           100.00%
*     0+    0                          643.0000        0.0000           100.00%
*     0+    0                           44.0000        0.0000           100.00%
*     0+    0                           40.0000        0.0000           100.00%
      0     0  -1.00000e+75     0       40.0000        0.0000    15468  100.00%
Detecting symmetries...
      0     2        0.0000   662       40.0000        0.0000    15468  100.00%
Elapsed time = 55.08 sec. (48154.56 ticks, tree = 0.01 MB, solutions = 5)
      1     3        0.0000   720       40.0000        0.0000    42165  100.00%
      2     4        0.0000   721       40.0000        0.0000    51492  100.00%
      3     5        0.0000   587       40.0000        0.0000    63355  100.00%
      4     6        0.0000   725       40.0000        0.0000    69961  100.00%
      5     7        0.0000   583       40.0000        0.0000    72539  100.00%
      6     8        0.0000  1304       40.0000        0.0000    92917  100.00%
      7     9        0.0000   698       40.0000        0.0000   105030  100.00%
      8    10        0.0000  1221       40.0000        0.0000   110118  100.00%
      9    11        0.0000  1310       40.0000        0.0000   111426  100.00%
     10    12        0.0000  1210       40.0000        0.0000   114572  100.00%
Elapsed time = 108.09 sec. (96737.67 ticks, tree = 0.30 MB, solutions = 5)
     12    14        0.0000  1195       40.0000        0.0000   118457  100.00%
     13    15        0.0000   875       40.0000        0.0000   128837  100.00%
     14    16        0.0000  1723       40.0000        0.0000   130517  100.00%
     15    17        0.0000  2871       40.0000        0.0000   132377  100.00%
     17    19        0.0000   874       40.0000        0.0000   139246  100.00%
     19    21        0.0000   828       40.0000        0.0000   149791  100.00%
     20    22        0.0000  3054       40.0000        0.0000   155796  100.00%
     21    23        0.0000  1154       40.0000        0.0000   160095  100.00%
     22    24        0.0000  1114       40.0000        0.0000   166078  100.00%
     23    25       -0.0000  1361       40.0000        0.0000   192136  100.00%
Elapsed time = 143.68 sec. (126779.54 ticks, tree = 0.78 MB, solutions = 5)
     25    27        0.0000   927       40.0000        0.0000   200152  100.00%
     26    28        0.0002   941       40.0000        0.0000   202647  100.00%
     27    29        0.0000   943       40.0000        0.0000   208092  100.00%
     28    30        0.0000  2413       40.0000        0.0000   212443  100.00%
     29    31        0.0000   950       40.0000        0.0000   215457  100.00%
     30    32        0.0000   932       40.0000        0.0000   220386  100.00%
     31    33        0.0000  1586       40.0000        0.0000   230926  100.00%
     33    35        0.0000   947       40.0000        0.0000   239693  100.00%
     35    37        0.0000  1879       40.0000        0.0000   285622  100.00%
     37    39        0.0000   961       40.0000        0.0000   289362  100.00%
Elapsed time = 182.83 sec. (159737.95 ticks, tree = 1.27 MB, solutions = 5)
     38    40        0.0000   943       40.0000        0.0000   292441  100.00%
     39    41        0.0000   935       40.0000        0.0000   297684  100.00%
     40    42        0.0000  1064       40.0000        0.0000   302860  100.00%
     42    44        0.0000   945       40.0000        0.0000   317813  100.00%
     43    45       -0.0000   930       40.0000        0.0000   317884  100.00%
     44    46        0.0000   922       40.0000        0.0000   325977  100.00%
     45    47        0.0000  2015       40.0000        0.0000   329110  100.00%
     46    48        0.0000   909       40.0000        0.0000   332730  100.00%
     47    49        0.0000   924       40.0000        0.0000   337156  100.00%
     48    50       -0.0000  2210       40.0000        0.0000   341159  100.00%
Elapsed time = 206.42 sec. (181029.98 ticks, tree = 1.75 MB, solutions = 5)
     49    51       -0.0000   990       40.0000        0.0000   347938  100.00%
     50    52        0.0000   903       40.0000        0.0000   350190  100.00%
     51    53        0.0000   918       40.0000        0.0000   354347  100.00%
     53    55        0.0000   897       40.0000        0.0000   354687  100.00%
     54    56        0.0000   849       40.0000        0.0000   357799  100.00%
     55    57        0.0000   851       40.0000        0.0000   360259  100.00%
     57    59        0.0000   530       40.0000        0.0000   372414  100.00%
     58    60        0.0000   509       40.0000        0.0000   374740  100.00%
     59    61        0.0000   487       40.0000        0.0000   383812  100.00%
     60    62       -0.0000   457       40.0000        0.0000   388908  100.00%
Elapsed time = 246.70 sec. (215173.54 ticks, tree = 2.24 MB, solutions = 5)
     61    63       -0.0000  1349       40.0000        0.0000   393190  100.00%
     63    65        0.0000   470       40.0000        0.0000   395557  100.00%
     64    66       -0.0000   395       40.0000        0.0000   402942  100.00%
     65    67        0.0000   514       40.0000        0.0000   417916  100.00%
     66    68       -0.0000   395       40.0000        0.0000   420779  100.00%
     67    69       -0.0000   387       40.0000        0.0000   424191  100.00%
     68    70       -0.0000   286       40.0000        0.0000   427387  100.00%
     69    71        0.0000   452       40.0000        0.0000   435723  100.00%
     70    72        0.0000   557       40.0000        0.0000   440937  100.00%
     72    74       -0.0000   481       40.0000        0.0000   442301  100.00%
Elapsed time = 284.35 sec. (248894.14 ticks, tree = 2.62 MB, solutions = 5)
     73    75       -0.0000   451       40.0000        0.0000   445252  100.00%
     74    76       -0.0000   549       40.0000        0.0000   448311  100.00%
     75    77       -0.0000  1236       40.0000        0.0000   455319  100.00%
     76    78        0.0000   674       40.0000        0.0000   465209  100.00%
     77    79       -0.0000   333       40.0000        0.0000   469805  100.00%
     78    80        0.0000   869       40.0000        0.0000   493215  100.00%
     79    81        0.0000   398       40.0000        0.0000   500793  100.00%
     81    83       -0.0000   355       40.0000        0.0000   506122  100.00%
     83    85        0.0000   363       40.0000        0.0000   510280  100.00%
     84    86       -0.0000   394       40.0000        0.0000   516680  100.00%
Elapsed time = 327.54 sec. (287241.48 ticks, tree = 3.01 MB, solutions = 5)
     85    87        0.0000   396       40.0000        0.0000   525100  100.00%
     86    88       -0.0000   398       40.0000        0.0000   530551  100.00%
     87    89        0.0000  2106       40.0000        0.0000   541885  100.00%
     88    90        0.0000   531       40.0000        0.0000   545953  100.00%
     89    91       -0.0000   511       40.0000        0.0000   550359  100.00%
     91    93        0.0000   520       40.0000        0.0000   550984  100.00%
     92    94        0.0000   508       40.0000        0.0000   554453  100.00%
     93    95        0.0000   500       40.0000        0.0000   555927  100.00%
     95    97        0.0000   519       40.0000        0.0000   561071  100.00%
     97    99       -0.0000   586       40.0000        0.0000   564630  100.00%
Elapsed time = 356.39 sec. (312523.18 ticks, tree = 3.50 MB, solutions = 5)
     99   101       -0.0000   505       40.0000        0.0000   565337  100.00%
    100   102        0.0000   716       40.0000        0.0000   569004  100.00%
    101   103       -0.0000   775       40.0000        0.0000   573732  100.00%
    102   104        0.0000   783       40.0000        0.0000   575120  100.00%
    104   106       -0.0000   809       40.0000        0.0000   577466  100.00%
    105   107        0.0000   664       40.0000        0.0000   578691  100.00%
    106   108        0.0000   680       40.0000        0.0000   580371  100.00%
    107   109        0.0000   692       40.0000        0.0000   581420  100.00%
    109   111        0.0000   697       40.0000        0.0000   582256  100.00%
    110   112       -0.0000   614       40.0000        0.0000   586129  100.00%
Elapsed time = 378.07 sec. (331597.80 ticks, tree = 4.08 MB, solutions = 5)
    111   113       -0.0000   598       40.0000        0.0000   589843  100.00%
    113   115        0.0000  1395       40.0000        0.0000   595910  100.00%
    115   117       -0.0000   868       40.0000        0.0000   601751  100.00%
    116   118       -0.0000   528       40.0000        0.0000   605907  100.00%
    118   120       -0.0000   512       40.0000        0.0000   606983  100.00%
    120   122        0.0000   604       40.0000        0.0000   611556  100.00%
    122   124       -0.0000   650       40.0000        0.0000   617202  100.00%
    124   126        0.0000   531       40.0000        0.0000   622855  100.00%
    125   127       -0.0000   554       40.0000        0.0000   627032  100.00%
    127   129       -0.0000   540       40.0000        0.0000   632571  100.00%
Elapsed time = 415.80 sec. (364782.86 ticks, tree = 4.78 MB, solutions = 5)
    129   131        0.0000   647       40.0000        0.0000   638016  100.00%
    132   134        0.0000   528       40.0000        0.0000   642634  100.00%
    135   137       -0.0000   601       40.0000        0.0000   648903  100.00%
    137   139       -0.0000   445       40.0000        0.0000   657477  100.00%
    139   141        0.0000   650       40.0000        0.0000   662810  100.00%
    142   144        0.0000   816       40.0000        0.0000   668596  100.00%
    146   148        0.0000   617       40.0000        0.0000   672693  100.00%
    149   151        0.0000   770       40.0000        0.0000   683951  100.00%
    153   155        0.0000   460       40.0000        0.0000   687834  100.00%
    156   158        0.0000   616       40.0000        0.0000   696138  100.00%
Elapsed time = 471.54 sec. (414086.50 ticks, tree = 5.98 MB, solutions = 5)
    159   161        0.0000   453       40.0000        0.0000   701197  100.00%
    160   162        0.0000   460       40.0000        0.0000   701788  100.00%
    163   165        1.0000   694       40.0000        0.0000   709862  100.00%
    167   169       -0.0000   617       40.0000        0.0000   716338  100.00%
    170   172       -0.0000   529       40.0000        0.0000   725067  100.00%
    173   175        0.0000   535       40.0000        0.0000   731775  100.00%
    175   177        0.0000   702       40.0000        0.0000   738847  100.00%
    177   179       -0.0000   616       40.0000        0.0000   744655  100.00%
    178   180       -0.0000   921       40.0000        0.0000   754550  100.00%
    180   182       -0.0000   590       40.0000        0.0000   759542  100.00%
Elapsed time = 539.79 sec. (472594.67 ticks, tree = 6.87 MB, solutions = 5)
    185   187       -0.0000  1090       40.0000        0.0000   767454  100.00%
    187   189       -0.0000  1093       40.0000        0.0000   775687  100.00%
    190   192       -0.0000   589       40.0000        0.0000   780316  100.00%
    193   195        0.0000   792       40.0000        0.0000   786273  100.00%
    196   198       -0.0000   567       40.0000        0.0000   790944  100.00%
    198   200       -0.0000   815       40.0000        0.0000   797099  100.00%
Starting limited solution polishing.
*   200+  200                           22.0000        0.0000           100.00%
*   200+  200                           14.0000        0.0000           100.00%
*   200+  200                            7.0000        0.0000           100.00%
    200   202       -0.0000   812        7.0000        0.0000   802781  100.00%
    204   206       -0.0000   687        7.0000        0.0000   810900  100.00%
    207   209       -0.0000   764        7.0000        0.0000   819946  100.00%
    209   211        0.0000   696        7.0000        0.0000   827176  100.00%
Elapsed time = 596.69 sec. (521795.89 ticks, tree = 8.07 MB, solutions = 8)

Zero-half cuts applied:  5

Root node processing (before b&c):
  Real time             =   55.04 sec. (48125.38 ticks)
Sequential b&c:
  Real time             =  544.97 sec. (476598.81 ticks)
                          ------------
Total (root+branch&cut) =  600.01 sec. (524724.19 ticks)
Primal number of violations:	7
Dual number of violations:	0
Status:	Feasible
Time:	600.01
Sequence:
	18
	2
	4
	18
	2
	4
	18
	2
	4
	18
	2
	4
	18
	2
	3
	18
	2
	4
	18
	2
	3
	18
	2
	4
	18
	2
	3
	18
	4
	3
	8
	7
	4
	17
	14
	13
	8
	16
	13
	8
	16
	13
	8
	16
	6
	17
	14
	13
	8
	16
	13
	17
	14
	13
	8
	14
	13
	8
	16
	13
	17
	14
	13
	17
	14
	5
	9
	14
	0
	9
	14
	0
	9
	7
	5
	8
	16
	6
	9
	7
	13
	8
	14
	6
	17
	14
	13
	8
	14
	6
	12
	10
	4
	17
	7
	6
	17
	7
	6
	17
	7
	13
	17
	14
	4
	8
	6
	1
	2
	18
	4
	2
	18
	3
	5
	8
	16
	3
	9
	11
	6
	9
	16
	0
	9
	14
	6
	9
	0
	6
	10
	12
	5
	19
	2
	11
	19
	2
	11
	1
	2
	11
	1
	15
	0
	10
	15
	11
	1
	15
	11
	1
	15
	0
	10
	2
	0
	10
	13
	12
	1
	7
	12
	19
	7
	0
	9
	7
	0
	4
	10
	12
	5
	19
	12
	5
	1
	12
	14
	19
	12
	16
	19
	12
	16
	19
	12
	16
	19
	12
	16
	1
	12
	7
	1
	12
	16
	1
	15
	11
	1
	5
	12
	10
	15
	0
	10
	15
	0
	10
	2
	0
	19
	7
	12
	19
	16
	12
	19
	16
	12
	1
	14
	12
	19
	16
	0
	9
	13
	0
	10
	13
	12
	1
	16
	12
	19
	7
	12
	1
	3
	4
	18
	3
	2
	18
	3
	5
	8
	14
	5
	8
	13
	10
	12
	5
	7
	12
	5
	14
	8
	6
	16
	8
	3
	6
	8
	3
	3
	18
	2
	5
	7
	17
	4
	16
	8
	13
	14
	17
	3
	14
	17
	6
	7
	8
	6
	7
	8
	5
	7
	17
	4
	16
	8
	4
	16
	8
	13
	16
	8
	5
	14
	17
	13
	4
	17
	7
	5
	8
	7
	5
	8
	16
	4
	17
	7
	5
	8
	7
	5
	8
	7
	13
	8
	7
	5
	8
	7
	5
	8
	16
	6
	17
	7
	6
	8
	16
	4
	17
	7
	3
	17
	7
	3
	17
	14
	3
	17
	7
	13
	17
	7
	13
	17
	7
	6
	17
	7
	5
	9
	11
	13
	8
	16
	13
	17
	7
	4
	0
	10
	15
	0
	10
	15
	0
	10
	15
	0
	10
	3
	2
	18
	4
	2
	18
	3
	2
	1
	11
	15
	1
	11
	15
	1
	11
	15
	1
	11
	4
	9
	11
	13
	9
	11
	6
	9
	11
	4
	9
	11
	4
	9
	0
	7
	19
	12
	14
	19
	12
	14
	1
	15
	11
	1
	2
	11
	1
	15
	11
	1
	15
	0
	10
	15
	0
	10
	15
	0
	10
	15
	0
	10
	15
	0
	10
	3
	2
	18
	4
	5
	8
	14
	13
	8
	16
	3
	9
	11
	4
	9
	11
	4
	9
	11
	13
	9
	11
	13
	9
	11
	4
	9
	11
	13
	9
	11
	13
	9
	11
	3
	1
	12
	16
	19
	12
	7
	19
	12
	16
	19
	12
	14
	19
	12
	14
	1
	4
	2
	18
